;; Original file: ts_214.smt2
(set-logic HORN)
(declare-fun inv (Real Real Real Real Real) Bool)
(declare-fun fail () Bool)
(assert (forall ((k1 Real) (i1 Real) (j1 Real) (n1 Real) (b1 Real))
  (=> (and (= k1 100) (= i1 j1) (= n1 0) (= i1 0) (or (= b1 0) (= b1 1)))
      (inv k1 i1 j1 n1 b1))))
(assert (forall ((i0 Real)
         (j0 Real)
         (b0 Real)
         (n0 Real)
         (k0 Real)
         (i1 Real)
         (j1 Real)
         (n1 Real)
         (b1 Real))
  (let ((a!1 (and (inv k0 i0 j0 n0 b0)
                  (< n0 (* 2 k0))
                  (= i1 (ite (= b0 0) (+ i0 1) i0))
                  (= j1 (ite (= b0 0) j0 (+ j0 1)))
                  (= b1 (ite (= b0 0) 1 0))
                  (= n1 (+ n0 1)))))
    (=> a!1 (inv k0 i1 j1 n1 b1)))))
(assert (forall ((b1 Real) (k1 Real) (i1 Real) (j1 Real) (n1 Real))
  (let ((a!1 (and (inv k1 i1 j1 n1 b1) (>= n1 (* 2 k1)) (not (= (+ i1 j1) n1)))))
    (=> a!1 false))))

(check-sat)
(exit)
